c Random Network
p min 10 20
n 1 1
n 10 -1
c Transformed from a max-flow problem.
a 	 1	3	0	40	0
a 	 4	3	0	42	0
a 	 3	4	0	47	0
a 	 5	9	0	27	0
a 	 5	8	0	32	0
a 	 4	1	0	42	0
a 	 7	10	0	8	0
a 	 10	3	0	28	0
a 	 3	6	0	45	0
a 	 6	3	0	17	0
a 	 3	2	0	16	0
a 	 1	4	0	2	0
a 	 2	7	0	23	0
a 	 2	5	0	41	0
a 	 10	7	0	21	0
a 	 3	1	0	35	0
a 	 1	2	0	31	0
a 	 3	7	0	18	0
a 	 6	8	0	39	0
a 	 10	6	0	50	0
